(set-logic QF_S)
(declare-fun var0 () String)
(declare-fun var1 () String)
(declare-fun var2 () String)
(assert (= var0 (str.++ "+da<]" (str.++ var1 ""))))
(assert (= var0 (str.++ ">Au}C" (str.++ var2 ""))))
(check-sat)